; benchmark generated from python API
(set-info :status unknown)
(declare-fun S_3 () Real)
(declare-fun A_2 () Real)
(declare-fun L_1 () Real)
(declare-fun S_1 () Real)
(declare-fun C () Real)
(declare-fun S_0 () Real)
(declare-fun S_4 () Real)
(declare-fun A_1 () Real)
(declare-fun A_0 () Real)
(declare-fun L_0 () Real)
(declare-fun S_2 () Real)
(declare-fun A_3 () Real)
(declare-fun L0 () Real)
(declare-fun A_4 () Real)
(assert
 (let (($x37 (>= L0 0.0)))
 (let (($x790 (>= C 5.0)))
 (let ((?x514 (* (- 1.0) A_1)))
 (let ((?x7469 (+ L_1 ?x514 C S_0)))
 (let (($x8473 (<= ?x7469 0.0)))
 (let (($x8449 (<= (+ (* (- 1.0) L_0) (* 2.0 C) A_1 (* (- 1.0) S_4)) 0.0)))
 (let (($x7845 (<= (+ (* 3.0 C) (* (- 1.0) S_4) S_0) 0.0)))
 (let (($x1377 (not (<= 0.0 (+ A_3 (* (- 1.0) A_2) S_3 (* (- 1.0) S_4))))))
 (let (($x8360 (<= (+ (* 2.0 C) (* (- 1.0) A_2) (* (- 1.0) S_4) A_3 S_0) (- 5.0))))
 (let (($x810 (<= (+ (* (- 1.0) L_1) A_3 (* (- 1.0) S_4)) 0.0)))
 (let ((?x521 (* (- 1.0) S_4)))
 (let ((?x510 (* (- 1.0) A_2)))
 (let ((?x590 (* (- 1.0) L_0)))
 (let (($x10591 (or (<= (+ ?x590 C A_3 ?x510 A_1 ?x521) (- 5.0)) $x810 $x7845 $x8360 $x8449)))
 (let (($x7414 (<= (+ ?x590 C A_1 (* (- 1.0) S_3)) 0.0)))
 (let (($x4516 (not (= L_0 L_1))))
 (let (($x8430 (or $x4516 (<= (+ ?x590 A_3 ?x521) 0.0) $x7414 $x7845 (<= (+ ?x590 A_1 C A_3 ?x510 ?x521) 0.0))))
 (let (($x7874 (<= (+ C ?x521 S_2) 0.0)))
 (let (($x7839 (<= (+ (* 2.0 C) ?x521 S_1) 0.0)))
 (let (($x7994 (<= (+ L_1 ?x514 (* (- 1.0) A_4) (* (- 1.0) C) A_2 S_4) 0.0)))
 (let (($x54 (= L_1 L_0)))
 (let (($x7902 (<= (+ (* (- 1.0) L_1) A_1 C A_3 ?x510 ?x521) 0.0)))
 (let (($x6218 (<= (+ (* (- 1.0) C) A_2 ?x514) 0.0)))
 (let (($x7911 (<= (+ L_1 ?x514 (* (- 2.0) C) (* (- 1.0) A_3) A_2 S_4) 0.0)))
 (let (($x7816 (<= (+ L_1 ?x514 (* (- 2.0) C) S_4 A_3 (* (- 1.0) A_4)) 0.0)))
 (let (($x36 (>= L_0 L0)))
 (let (($x111 (>= S_1 S_0)))
 (let (($x114 (>= S_2 S_1)))
 (let (($x117 (>= S_3 S_2)))
 (let (($x120 (>= S_4 S_3)))
 (let (($x122 (>= A_1 A_0)))
 (let (($x124 (>= A_3 A_2)))
 (let (($x125 (>= A_4 A_3)))
 (and (<= (+ A_1 (* (- 1.0) L_1)) S_3) $x125 $x124 $x122 $x120 $x117 $x114 $x111 $x36 (or $x54 (<= (+ L_1 (* (- 1.0) C) ?x514 S_2) (- 5.0))) (or $x54 (not (<= 0.0 (+ (* (- 1.0) L_1) L_0)))) (or $x54 (<= (+ (* 2.0 C) (* (- 1.0) S_3) S_0) 0.0)) (or $x54 (<= ?x7469 (- 5.0))) (<= (+ (* (- 4.0) C) L_0 S_4 (* (- 1.0) A_0)) 0.0) (or $x54 (<= (+ (* (- 3.0) C) L_1 S_4 ?x514) (- 5.0))) (or $x54 $x7816) (or $x54 (not (<= 0.0 (+ L_1 ?x514 (* (- 1.0) C) S_3)))) (<= (+ (* (- 3.0) C) L_0 S_3 (* (- 1.0) A_0)) 0.0) (or $x54 (<= (+ L_1 ?x514 S_1) (- 5.0))) (or $x6218 $x7874 $x7902) (or $x54 $x6218 $x7845 $x7902) (or $x54 $x7911) (or $x6218 $x7839 $x7902) (or $x54 $x7994) (or $x1377 $x7839) (or (<= (+ (* 2.0 C) (* (- 1.0) S_3) S_0) 0.0) $x7414) (<= (+ L_0 (* (- 1.0) A_4) S_4) 0.0) (or $x1377 $x7874) (<= (+ (* (- 2.0) C) (* (- 1.0) S_1) S_2) 0.0) (or $x810 (not $x6218) $x7874) (<= (+ L_0 (* (- 3.0) C) ?x514 S_4) 0.0) (or $x810 (not $x6218) $x7839) (or $x810 $x7839 (<= (+ C A_3 ?x510 ?x521 S_1) (- 5.0))) (<= (+ L_1 (* (- 1.0) A_4) S_4) 0.0) (or $x810 (not $x6218) $x7845) (or $x810 $x7874 (<= (+ A_3 ?x510 ?x521 S_2) (- 5.0))) (<= (+ L_1 ?x514 (* (- 2.0) C) S_3) 0.0) $x8430 $x10591 (or $x1377 $x7845 $x8449) (or (<= (+ C S_0 (* (- 1.0) S_2)) 0.0) (not $x8473)) (or (<= (+ ?x590 A_1 (* (- 1.0) S_2)) 0.0) $x8473) $x790 $x37 (<= (+ L_1 (* (- 1.0) C) ?x514 S_2) 0.0) (<= (+ (* (- 2.0) C) L_0 S_2 (* (- 1.0) A_0)) 0.0) (<= (+ (* (- 3.0) C) (* (- 1.0) S_0) S_2) 0.0) (<= (+ L_0 S_0 (* (- 1.0) A_0)) 0.0) (<= (+ (* (- 2.0) C) (* (- 1.0) S_3) S_4) 0.0) (<= (+ L_1 (* (- 1.0) C) (* (- 1.0) A_3) S_4) 0.0) (<= (+ (* (- 3.0) C) S_4 (* (- 1.0) S_2)) 0.0) (<= (+ (* (- 2.0) C) S_3 (* (- 1.0) S_2)) 0.0) (<= (+ C (* (- 1.0) S_3) S_1) 0.0) (<= (+ (* (- 2.0) C) (* (- 1.0) S_0) S_1) 0.0) (<= (+ (* (- 5.0) C) S_4 (* (- 1.0) S_0)) 0.0) (<= (+ (* (- 1.0) C) L_0 S_1 (* (- 1.0) A_0)) 0.0) (<= (+ L_1 ?x514 S_1) 0.0) (<= (+ (* (- 4.0) C) S_4 (* (- 1.0) S_1)) 0.0) (<= (+ (* (- 4.0) C) S_3 (* (- 1.0) S_0)) 0.0) (<= (+ (* (- 3.0) C) S_3 (* (- 1.0) S_1)) 0.0) (not (>= (+ L_1 ?x510 S_3) 0.0)))))))))))))))))))))))))))))))))))))
(check-sat)
